nProjectSelect = 3;


Students = {
<s1, {p1 p6 p4}>,
<s2, {p2 p4 p1}>,
<s3, {p1 p4}>,
<s4, {p6 p5 p3}>
};


Projects = {
<p1, 1, N>,
<p2, 1, Y>,
<p3, 1, N>,
<p4, 1, N>,
<p5, 2, N>,
<p6, 1, N>
};


Lecturers = {
<l1, {p1 p6}, 2>,
<l2, {p2 p5}, 1>,
<l3, {p2 p3 p4}, 2>,
};
